; PUSH cw_2 SWAP1 DUP2 SWAP1 DUP2 => PUSH cw_2 DUP1 SWAP2 PUSH cw_2
(set-option :produce-proofs true)
; 
(set-info :status unknown)
(declare-fun storage_t ((_ BitVec 256) (_ BitVec 256) Int (_ BitVec 256)) (_ BitVec 256))
(declare-fun w_2 () (_ BitVec 256))
(declare-fun storage_s ((_ BitVec 256) (_ BitVec 256) Int (_ BitVec 256)) (_ BitVec 256))
(declare-fun exc_halt_t (Int) Bool)
(declare-fun exc_halt_s (Int) Bool)
(declare-fun sc_t (Int) (_ BitVec 6))
(declare-fun stack_t ((_ BitVec 256) (_ BitVec 256) Int (_ BitVec 6)) (_ BitVec 256))
(declare-fun stack_s ((_ BitVec 256) (_ BitVec 256) Int (_ BitVec 6)) (_ BitVec 256))
(declare-fun sc_s (Int) (_ BitVec 6))
(declare-fun used_gas_t ((_ BitVec 256) (_ BitVec 256) Int) Int)
(declare-fun used_gas_s ((_ BitVec 256) (_ BitVec 256) Int) Int)
(assert
 (exists ((x_0 (_ BitVec 256)) )(let (($x6287 (forall ((w (_ BitVec 256)) )(let ((?x6580 (storage_t x_0 w_2 4 w)))
 (let ((?x3083 (storage_s x_0 w_2 5 w)))
 (= ?x3083 ?x6580))))
 ))
 (let (($x3723 (exc_halt_t 4)))
 (let (($x3979 (exc_halt_s 5)))
 (let (($x7567 (= $x3979 $x3723)))
 (let (($x2601 (forall ((n (_ BitVec 6)) )(let ((?x3757 (sc_t 4)))
 (let (($x9962 (bvsle ?x3757 n)))
 (let ((?x3180 (stack_t x_0 w_2 4 n)))
 (let ((?x7081 (stack_s x_0 w_2 5 n)))
 (let (($x2111 (= ?x7081 ?x3180)))
 (or $x2111 $x9962)))))))
 ))
 (let ((?x3757 (sc_t 4)))
 (let ((?x805 (sc_s 5)))
 (let (($x9143 (= ?x805 ?x3757)))
 (let ((?x6146 (used_gas_t x_0 w_2 0)))
 (let ((?x5759 (used_gas_s x_0 w_2 0)))
 (let (($x10828 (= ?x5759 ?x6146)))
 (let (($x7735 (forall ((w (_ BitVec 256)) )(let ((?x8066 (storage_t x_0 w_2 0 w)))
 (let ((?x4538 (storage_s x_0 w_2 0 w)))
 (= ?x4538 ?x8066))))
 ))
 (let (($x56 (exc_halt_t 0)))
 (let (($x57 (exc_halt_s 0)))
 (let (($x58 (= $x57 $x56)))
 (let (($x8801 (forall ((n (_ BitVec 6)) )(let ((?x8307 (stack_t x_0 w_2 0 n)))
 (let ((?x5655 (stack_s x_0 w_2 0 n)))
 (let (($x7546 (= ?x5655 ?x8307)))
 (let ((?x63 (sc_t 0)))
 (let (($x2337 (bvsle ?x63 n)))
 (or $x2337 $x7546)))))))
 ))
 (let ((?x63 (sc_t 0)))
 (let ((?x72 (sc_s 0)))
 (let (($x73 (= ?x72 ?x63)))
 (let (($x6057 (not (= ((_ extract 6 6) (bvadd (_ bv1 7) (concat (_ bv0 1) (sc_t 3)))) (_ bv0 1)))))
 (let (($x6783 (exc_halt_t 3)))
 (let (($x4110 (= $x3723 (or $x6783 $x6057))))
 (let (($x1110 (forall ((w (_ BitVec 256)) )(let ((?x7203 (storage_t x_0 w_2 3 w)))
 (let ((?x6580 (storage_t x_0 w_2 4 w)))
 (= ?x6580 ?x7203))))
 ))
 (let (($x8677 (forall ((n (_ BitVec 6)) )(let ((?x6438 (sc_t 3)))
 (let (($x256 (bvsle ?x6438 n)))
 (or $x256 (= (stack_t x_0 w_2 4 n) (stack_t x_0 w_2 3 n))))))
 ))
 (let (($x6410 (= ?x3757 (bvadd (_ bv1 6) (sc_t 3)))))
 (let (($x4582 (= (used_gas_t x_0 w_2 4) (+ 3 (used_gas_t x_0 w_2 3)))))
 (let (($x2513 (= $x6783 (or (exc_halt_t 2) (not (bvsle (_ bv0 6) (bvadd (_ bv61 6) (sc_t 2))))))))
 (let (($x1847 (forall ((w (_ BitVec 256)) )(let ((?x1839 (storage_t x_0 w_2 2 w)))
 (let ((?x7203 (storage_t x_0 w_2 3 w)))
 (= ?x7203 ?x1839))))
 ))
 (let (($x2030 (forall ((n (_ BitVec 6)) )(or (= (stack_t x_0 w_2 3 n) (stack_t x_0 w_2 2 n)) (bvsle (bvadd (_ bv61 6) (sc_t 2)) n)))
 ))
 (let ((?x2714 (sc_t 2)))
 (let ((?x6438 (sc_t 3)))
 (let (($x4083 (= ?x6438 ?x2714)))
 (let ((?x8969 (used_gas_t x_0 w_2 3)))
 (let (($x8868 (= (stack_t x_0 w_2 3 (bvadd (_ bv62 6) ?x6438)) (stack_t x_0 w_2 2 (bvadd (_ bv62 6) ?x2714)))))
 (let ((?x8825 (bvadd (_ bv63 6) ?x2714)))
 (let ((?x2865 (stack_t x_0 w_2 2 ?x8825)))
 (let (($x7721 (= (stack_t x_0 w_2 3 (bvadd (_ bv63 6) ?x6438)) (stack_t x_0 w_2 2 (bvadd (_ bv61 6) ?x2714)))))
 (let (($x9927 (not (= ((_ extract 6 6) (bvadd (_ bv1 7) (concat (_ bv0 1) (sc_t 1)))) (_ bv0 1)))))
 (let (($x4787 (not (bvsle (_ bv0 6) (bvadd (_ bv63 6) (sc_t 1))))))
 (let (($x326 (exc_halt_t 1)))
 (let (($x5252 (exc_halt_t 2)))
 (let (($x7187 (forall ((w (_ BitVec 256)) )(let ((?x8315 (storage_t x_0 w_2 1 w)))
 (let ((?x1839 (storage_t x_0 w_2 2 w)))
 (= ?x1839 ?x8315))))
 ))
 (let (($x1406 (forall ((n (_ BitVec 6)) )(let ((?x11560 (sc_t 1)))
 (let ((?x8596 (bvadd (_ bv63 6) ?x11560)))
 (let (($x6084 (bvsle ?x8596 n)))
 (or (= (stack_t x_0 w_2 2 n) (stack_t x_0 w_2 1 n)) $x6084)))))
 ))
 (let (($x10865 (= ?x2714 (bvadd (_ bv1 6) (sc_t 1)))))
 (let ((?x9583 (used_gas_t x_0 w_2 2)))
 (let ((?x11560 (sc_t 1)))
 (let ((?x8596 (bvadd (_ bv63 6) ?x11560)))
 (let ((?x2349 (stack_t x_0 w_2 1 ?x8596)))
 (let (($x3753 (= $x326 (or $x56 (not (= ((_ extract 6 6) (bvadd (_ bv1 7) (concat (_ bv0 1) ?x63))) (_ bv0 1)))))))
 (let (($x3078 (forall ((w (_ BitVec 256)) )(let ((?x8066 (storage_t x_0 w_2 0 w)))
 (let ((?x8315 (storage_t x_0 w_2 1 w)))
 (= ?x8315 ?x8066))))
 ))
 (let (($x8873 (forall ((n (_ BitVec 6)) )(let ((?x63 (sc_t 0)))
 (let (($x2337 (bvsle ?x63 n)))
 (or $x2337 (= (stack_t x_0 w_2 1 n) (stack_t x_0 w_2 0 n))))))
 ))
 (let (($x7646 (= ?x11560 (bvadd (_ bv1 6) ?x63))))
 (let (($x7172 (exc_halt_s 4)))
 (let (($x3842 (not (= ((_ extract 6 6) (bvadd (_ bv1 7) (concat (_ bv0 1) (sc_s 4)))) (_ bv0 1)))))
 (let (($x1550 (not (bvsle (_ bv0 6) (bvadd (_ bv62 6) (sc_s 4))))))
 (let (($x5745 (= $x3979 (or $x1550 $x3842 $x7172))))
 (let (($x4939 (forall ((w (_ BitVec 256)) )(let ((?x1383 (storage_s x_0 w_2 4 w)))
 (let ((?x3083 (storage_s x_0 w_2 5 w)))
 (= ?x3083 ?x1383))))
 ))
 (let (($x2471 (forall ((n (_ BitVec 6)) )(let ((?x4305 (sc_s 4)))
 (let ((?x8912 (bvadd (_ bv62 6) ?x4305)))
 (let (($x9203 (bvsle ?x8912 n)))
 (or (= (stack_s x_0 w_2 5 n) (stack_s x_0 w_2 4 n)) $x9203)))))
 ))
 (let (($x6906 (= ?x805 (bvadd (_ bv1 6) (sc_s 4)))))
 (let (($x4840 (= (used_gas_s x_0 w_2 5) (+ 3 (used_gas_s x_0 w_2 4)))))
 (let ((?x4305 (sc_s 4)))
 (let ((?x10093 (bvadd (_ bv63 6) ?x4305)))
 (let ((?x9653 (stack_s x_0 w_2 4 ?x10093)))
 (let ((?x8912 (bvadd (_ bv62 6) ?x4305)))
 (let ((?x436 (stack_s x_0 w_2 4 ?x8912)))
 (let (($x8515 (= $x7172 (or (exc_halt_s 3) (not (bvsle (_ bv0 6) (bvadd (_ bv62 6) (sc_s 3))))))))
 (let (($x9049 (forall ((w (_ BitVec 256)) )(let ((?x6248 (storage_s x_0 w_2 3 w)))
 (let ((?x1383 (storage_s x_0 w_2 4 w)))
 (= ?x1383 ?x6248))))
 ))
 (let (($x9130 (forall ((n (_ BitVec 6)) )(let ((?x275 (sc_s 3)))
 (let ((?x6122 (bvadd (_ bv62 6) ?x275)))
 (let (($x11118 (bvsle ?x6122 n)))
 (or (= (stack_s x_0 w_2 4 n) (stack_s x_0 w_2 3 n)) $x11118)))))
 ))
 (let ((?x275 (sc_s 3)))
 (let (($x5336 (= ?x4305 ?x275)))
 (let ((?x4246 (used_gas_s x_0 w_2 4)))
 (let (($x834 (not (= ((_ extract 6 6) (bvadd (_ bv1 7) (concat (_ bv0 1) (sc_s 2)))) (_ bv0 1)))))
 (let (($x674 (not (bvsle (_ bv0 6) (bvadd (_ bv62 6) (sc_s 2))))))
 (let (($x247 (exc_halt_s 2)))
 (let (($x292 (exc_halt_s 3)))
 (let (($x3941 (forall ((w (_ BitVec 256)) )(let ((?x9150 (storage_s x_0 w_2 2 w)))
 (let ((?x6248 (storage_s x_0 w_2 3 w)))
 (= ?x6248 ?x9150))))
 ))
 (let (($x6990 (forall ((n (_ BitVec 6)) )(let ((?x218 (sc_s 2)))
 (let ((?x2594 (bvadd (_ bv62 6) ?x218)))
 (let (($x5151 (bvsle ?x2594 n)))
 (or $x5151 (= (stack_s x_0 w_2 3 n) (stack_s x_0 w_2 2 n)))))))
 ))
 (let (($x4905 (= ?x275 (bvadd (_ bv1 6) (sc_s 2)))))
 (let ((?x9043 (used_gas_s x_0 w_2 3)))
 (let ((?x218 (sc_s 2)))
 (let ((?x5548 (bvadd (_ bv63 6) ?x218)))
 (let ((?x3093 (stack_s x_0 w_2 2 ?x5548)))
 (let ((?x2594 (bvadd (_ bv62 6) ?x218)))
 (let ((?x7347 (stack_s x_0 w_2 2 ?x2594)))
 (let (($x8572 (= $x247 (or (exc_halt_s 1) (not (bvsle (_ bv0 6) (bvadd (_ bv62 6) (sc_s 1))))))))
 (let (($x7276 (forall ((w (_ BitVec 256)) )(let ((?x8465 (storage_s x_0 w_2 1 w)))
 (let ((?x9150 (storage_s x_0 w_2 2 w)))
 (= ?x9150 ?x8465))))
 ))
 (let (($x7162 (forall ((n (_ BitVec 6)) )(let ((?x154 (sc_s 1)))
 (let ((?x1353 (bvadd (_ bv62 6) ?x154)))
 (let (($x2007 (bvsle ?x1353 n)))
 (or $x2007 (= (stack_s x_0 w_2 2 n) (stack_s x_0 w_2 1 n)))))))
 ))
 (let ((?x154 (sc_s 1)))
 (let (($x7667 (= ?x218 ?x154)))
 (let ((?x11042 (used_gas_s x_0 w_2 2)))
 (let (($x189 (exc_halt_s 1)))
 (let (($x4214 (= $x189 (or $x57 (not (= ((_ extract 6 6) (bvadd (_ bv1 7) (concat (_ bv0 1) ?x72))) (_ bv0 1)))))))
 (let (($x10602 (forall ((w (_ BitVec 256)) )(let ((?x4538 (storage_s x_0 w_2 0 w)))
 (let ((?x8465 (storage_s x_0 w_2 1 w)))
 (= ?x8465 ?x4538))))
 ))
 (let (($x8432 (forall ((n (_ BitVec 6)) )(let ((?x72 (sc_s 0)))
 (let (($x8577 (bvsle ?x72 n)))
 (or (= (stack_s x_0 w_2 1 n) (stack_s x_0 w_2 0 n)) $x8577))))
 ))
 (let (($x3297 (= ?x154 (bvadd (_ bv1 6) ?x72))))
 (let (($x10205 (forall ((w (_ BitVec 256)) )(let ((?x4538 (storage_s x_0 w_2 0 w)))
 (= ?x4538 (_ bv0 256))))
 ))
 (let (($x11317 (= ?x5759 0)))
 (let (($x4887 (not $x57)))
 (let (($x1766 (= (stack_s x_0 w_2 0 (_ bv0 6)) x_0)))
 (let (($x8685 (= ?x72 (_ bv1 6))))
 (and $x8685 $x1766 $x4887 $x11317 $x10205 (= (stack_s x_0 w_2 1 ?x72) w_2) (= (used_gas_s x_0 w_2 1) (+ 3 ?x5759)) $x3297 $x8432 $x10602 $x4214 (= ?x3093 (stack_s x_0 w_2 1 (bvadd (_ bv62 6) ?x154))) (= ?x7347 (stack_s x_0 w_2 1 (bvadd (_ bv63 6) ?x154))) (= ?x11042 (+ 3 (used_gas_s x_0 w_2 1))) $x7667 $x7162 $x7276 $x8572 (= (stack_s x_0 w_2 3 (bvadd (_ bv63 6) ?x275)) ?x7347) (= (stack_s x_0 w_2 3 ?x2594) ?x7347) (= (stack_s x_0 w_2 3 ?x5548) ?x3093) (= ?x9043 (+ 3 ?x11042)) $x4905 $x6990 $x3941 (= $x292 (or $x247 $x674 $x834)) (= ?x9653 (stack_s x_0 w_2 3 (bvadd (_ bv62 6) ?x275))) (= ?x436 (stack_s x_0 w_2 3 (bvadd (_ bv63 6) ?x275))) (= ?x4246 (+ 3 ?x9043)) $x5336 $x9130 $x9049 $x8515 (= (stack_s x_0 w_2 5 (bvadd (_ bv63 6) ?x805)) ?x436) (= (stack_s x_0 w_2 5 ?x8912) ?x436) (= (stack_s x_0 w_2 5 ?x10093) ?x9653) $x4840 $x6906 $x2471 $x4939 $x5745 (= (stack_t x_0 w_2 1 ?x63) w_2) (= (used_gas_t x_0 w_2 1) (+ 3 ?x6146)) $x7646 $x8873 $x3078 $x3753 (= ?x2865 ?x2349) (= (stack_t x_0 w_2 2 ?x8596) ?x2349) (= ?x9583 (+ 3 (used_gas_t x_0 w_2 1))) $x10865 $x1406 $x7187 (= $x5252 (or $x326 $x4787 $x9927)) $x7721 (= (stack_t x_0 w_2 3 (bvadd (_ bv61 6) ?x6438)) ?x2865) $x8868 (= ?x8969 (+ 3 ?x9583)) $x4083 $x2030 $x1847 $x2513 (= (stack_t x_0 w_2 4 ?x6438) w_2) $x4582 $x6410 $x8677 $x1110 $x4110 $x73 $x8801 $x58 $x7735 $x10828 (not (and $x9143 $x2601 $x7567 $x6287))))))))))))))))))))))))))))))))))))))))))))))))))))))))))))))))))))))))))))))))))))))))))))))))))))))))
 )
(check-sat)
(get-proof)
